; Benchmark for LTL-sketching problem
(set-logic QF_UF)
(set-info :status unknown)
(declare-fun z_0_0 () Bool)
(declare-fun z_0_11 () Bool)
(declare-fun z_0_19 () Bool)
(declare-fun z_0_30 () Bool)
(declare-fun z_0_34 () Bool)
(declare-fun z_0_38 () Bool)
(declare-fun z_0_41 () Bool)
(declare-fun z_0_42 () Bool)
(declare-fun z_0_46 () Bool)
(declare-fun z_0_56 () Bool)
(declare-fun z_0_67 () Bool)
(declare-fun x_0_G () Bool)
(declare-fun x_0_F () Bool)
(declare-fun x_0_X () Bool)
(declare-fun x_0_! () Bool)
(declare-fun z_1_0 () Bool)
(declare-fun z_1_1 () Bool)
(declare-fun z_1_10 () Bool)
(declare-fun z_1_9 () Bool)
(declare-fun z_1_8 () Bool)
(declare-fun z_1_7 () Bool)
(declare-fun z_1_6 () Bool)
(declare-fun z_1_5 () Bool)
(declare-fun z_1_4 () Bool)
(declare-fun z_1_3 () Bool)
(declare-fun z_1_2 () Bool)
(declare-fun z_0_1 () Bool)
(declare-fun z_0_2 () Bool)
(declare-fun z_0_3 () Bool)
(declare-fun z_0_4 () Bool)
(declare-fun z_0_5 () Bool)
(declare-fun z_0_6 () Bool)
(declare-fun z_0_7 () Bool)
(declare-fun z_0_8 () Bool)
(declare-fun z_0_9 () Bool)
(declare-fun z_0_10 () Bool)
(declare-fun z_1_11 () Bool)
(declare-fun z_1_12 () Bool)
(declare-fun z_1_18 () Bool)
(declare-fun z_1_17 () Bool)
(declare-fun z_1_16 () Bool)
(declare-fun z_1_15 () Bool)
(declare-fun z_1_14 () Bool)
(declare-fun z_1_13 () Bool)
(declare-fun z_0_12 () Bool)
(declare-fun z_0_13 () Bool)
(declare-fun z_0_14 () Bool)
(declare-fun z_0_15 () Bool)
(declare-fun z_0_16 () Bool)
(declare-fun z_0_17 () Bool)
(declare-fun z_0_18 () Bool)
(declare-fun z_1_19 () Bool)
(declare-fun z_1_20 () Bool)
(declare-fun z_1_29 () Bool)
(declare-fun z_1_28 () Bool)
(declare-fun z_1_27 () Bool)
(declare-fun z_1_26 () Bool)
(declare-fun z_1_25 () Bool)
(declare-fun z_1_24 () Bool)
(declare-fun z_1_23 () Bool)
(declare-fun z_1_22 () Bool)
(declare-fun z_1_21 () Bool)
(declare-fun z_0_20 () Bool)
(declare-fun z_0_21 () Bool)
(declare-fun z_0_22 () Bool)
(declare-fun z_0_23 () Bool)
(declare-fun z_0_24 () Bool)
(declare-fun z_0_25 () Bool)
(declare-fun z_0_26 () Bool)
(declare-fun z_0_27 () Bool)
(declare-fun z_0_28 () Bool)
(declare-fun z_0_29 () Bool)
(declare-fun z_1_30 () Bool)
(declare-fun z_1_31 () Bool)
(declare-fun z_1_33 () Bool)
(declare-fun z_1_32 () Bool)
(declare-fun z_0_31 () Bool)
(declare-fun z_0_32 () Bool)
(declare-fun z_0_33 () Bool)
(declare-fun z_1_34 () Bool)
(declare-fun z_1_35 () Bool)
(declare-fun z_1_37 () Bool)
(declare-fun z_1_36 () Bool)
(declare-fun z_0_35 () Bool)
(declare-fun z_0_36 () Bool)
(declare-fun z_0_37 () Bool)
(declare-fun z_1_38 () Bool)
(declare-fun z_1_39 () Bool)
(declare-fun z_1_41 () Bool)
(declare-fun z_1_40 () Bool)
(declare-fun z_0_39 () Bool)
(declare-fun z_0_40 () Bool)
(declare-fun z_1_42 () Bool)
(declare-fun z_1_43 () Bool)
(declare-fun z_1_45 () Bool)
(declare-fun z_1_44 () Bool)
(declare-fun z_0_43 () Bool)
(declare-fun z_0_44 () Bool)
(declare-fun z_0_45 () Bool)
(declare-fun z_1_46 () Bool)
(declare-fun z_1_47 () Bool)
(declare-fun z_1_55 () Bool)
(declare-fun z_1_54 () Bool)
(declare-fun z_1_53 () Bool)
(declare-fun z_1_52 () Bool)
(declare-fun z_1_51 () Bool)
(declare-fun z_1_50 () Bool)
(declare-fun z_1_49 () Bool)
(declare-fun z_1_48 () Bool)
(declare-fun z_0_47 () Bool)
(declare-fun z_0_48 () Bool)
(declare-fun z_0_49 () Bool)
(declare-fun z_0_50 () Bool)
(declare-fun z_0_51 () Bool)
(declare-fun z_0_52 () Bool)
(declare-fun z_0_53 () Bool)
(declare-fun z_0_54 () Bool)
(declare-fun z_0_55 () Bool)
(declare-fun z_1_56 () Bool)
(declare-fun z_1_57 () Bool)
(declare-fun z_1_66 () Bool)
(declare-fun z_1_65 () Bool)
(declare-fun z_1_64 () Bool)
(declare-fun z_1_63 () Bool)
(declare-fun z_1_62 () Bool)
(declare-fun z_1_61 () Bool)
(declare-fun z_1_60 () Bool)
(declare-fun z_1_59 () Bool)
(declare-fun z_1_58 () Bool)
(declare-fun z_0_57 () Bool)
(declare-fun z_0_58 () Bool)
(declare-fun z_0_59 () Bool)
(declare-fun z_0_60 () Bool)
(declare-fun z_0_61 () Bool)
(declare-fun z_0_62 () Bool)
(declare-fun z_0_63 () Bool)
(declare-fun z_0_64 () Bool)
(declare-fun z_0_65 () Bool)
(declare-fun z_0_66 () Bool)
(declare-fun z_1_67 () Bool)
(declare-fun z_1_68 () Bool)
(declare-fun z_1_70 () Bool)
(declare-fun z_1_69 () Bool)
(declare-fun z_0_68 () Bool)
(declare-fun z_0_69 () Bool)
(declare-fun z_0_70 () Bool)
(assert
 z_0_0)
(assert
 z_0_11)
(assert
 z_0_19)
(assert
 z_0_30)
(assert
 z_0_34)
(assert
 z_0_38)
(assert
 (not z_0_41))
(assert
 z_0_42)
(assert
 z_0_46)
(assert
 z_0_56)
(assert
 z_0_67)
(assert
 (or x_0_! x_0_X x_0_F x_0_G))
(assert
 (let (($x15 (not x_0_G)))
 (let (($x13 (not x_0_F)))
 (let (($x19 (or $x13 $x15)))
 (let (($x11 (not x_0_X)))
 (let (($x18 (or $x11 $x15)))
 (let (($x17 (or $x11 $x13)))
 (let (($x10 (not x_0_!)))
 (let (($x16 (or $x10 $x15)))
 (let (($x14 (or $x10 $x13)))
 (let (($x12 (or $x10 $x11)))
 (and $x12 $x14 $x16 $x17 $x18 $x19))))))))))))
(assert
 (=> x_0_! (= z_0_0 (not z_1_0))))
(assert
 (let (($x48 (= z_0_0 z_1_1)))
 (=> x_0_X $x48)))
(assert
 (let (($x60 (or z_1_0 z_1_1 z_1_2 z_1_3 z_1_4 z_1_5 z_1_6 z_1_7 z_1_8 z_1_9 z_1_10)))
 (let (($x61 (= z_0_0 $x60)))
 (=> x_0_F $x61))))
(assert
 (let (($x64 (and z_1_0 z_1_1 z_1_2 z_1_3 z_1_4 z_1_5 z_1_6 z_1_7 z_1_8 z_1_9 z_1_10)))
 (let (($x65 (= z_0_0 $x64)))
 (=> x_0_G $x65))))
(assert
 (=> x_0_! (= z_0_1 (not z_1_1))))
(assert
 (let (($x75 (= z_0_1 z_1_2)))
 (=> x_0_X $x75)))
(assert
 (let (($x78 (or z_1_1 z_1_2 z_1_3 z_1_4 z_1_5 z_1_6 z_1_7 z_1_8 z_1_9 z_1_10)))
 (let (($x79 (= z_0_1 $x78)))
 (=> x_0_F $x79))))
(assert
 (let (($x82 (and z_1_1 z_1_2 z_1_3 z_1_4 z_1_5 z_1_6 z_1_7 z_1_8 z_1_9 z_1_10)))
 (let (($x83 (= z_0_1 $x82)))
 (=> x_0_G $x83))))
(assert
 (=> x_0_! (= z_0_2 (not z_1_2))))
(assert
 (let (($x93 (= z_0_2 z_1_3)))
 (=> x_0_X $x93)))
(assert
 (let (($x96 (or z_1_2 z_1_3 z_1_4 z_1_5 z_1_6 z_1_7 z_1_8 z_1_9 z_1_10)))
 (let (($x97 (= z_0_2 $x96)))
 (=> x_0_F $x97))))
(assert
 (let (($x100 (and z_1_2 z_1_3 z_1_4 z_1_5 z_1_6 z_1_7 z_1_8 z_1_9 z_1_10)))
 (let (($x101 (= z_0_2 $x100)))
 (=> x_0_G $x101))))
(assert
 (=> x_0_! (= z_0_3 (not z_1_3))))
(assert
 (let (($x111 (= z_0_3 z_1_4)))
 (=> x_0_X $x111)))
(assert
 (let (($x115 (= z_0_3 (or z_1_3 z_1_4 z_1_5 z_1_6 z_1_7 z_1_8 z_1_9 z_1_10))))
 (=> x_0_F $x115)))
(assert
 (let (($x119 (= z_0_3 (and z_1_3 z_1_4 z_1_5 z_1_6 z_1_7 z_1_8 z_1_9 z_1_10))))
 (=> x_0_G $x119)))
(assert
 (=> x_0_! (= z_0_4 (not z_1_4))))
(assert
 (let (($x129 (= z_0_4 z_1_5)))
 (=> x_0_X $x129)))
(assert
 (let (($x133 (= z_0_4 (or z_1_4 z_1_5 z_1_6 z_1_7 z_1_8 z_1_9 z_1_10))))
 (=> x_0_F $x133)))
(assert
 (let (($x137 (= z_0_4 (and z_1_4 z_1_5 z_1_6 z_1_7 z_1_8 z_1_9 z_1_10))))
 (=> x_0_G $x137)))
(assert
 (=> x_0_! (= z_0_5 (not z_1_5))))
(assert
 (let (($x147 (= z_0_5 z_1_6)))
 (=> x_0_X $x147)))
(assert
 (let (($x150 (or z_1_5 z_1_6 z_1_7 z_1_8 z_1_9 z_1_10)))
 (let (($x151 (= z_0_5 $x150)))
 (=> x_0_F $x151))))
(assert
 (let (($x155 (= z_0_5 (and z_1_5 z_1_6 z_1_7 z_1_8 z_1_9 z_1_10))))
 (=> x_0_G $x155)))
(assert
 (=> x_0_! (= z_0_6 (not z_1_6))))
(assert
 (let (($x165 (= z_0_6 z_1_7)))
 (=> x_0_X $x165)))
(assert
 (=> x_0_F (= z_0_6 (or z_1_6 z_1_7 z_1_8 z_1_9 z_1_10 z_1_5))))
(assert
 (let (($x174 (= z_0_6 (and z_1_6 z_1_7 z_1_8 z_1_9 z_1_10 z_1_5))))
 (=> x_0_G $x174)))
(assert
 (=> x_0_! (= z_0_7 (not z_1_7))))
(assert
 (let (($x184 (= z_0_7 z_1_8)))
 (=> x_0_X $x184)))
(assert
 (=> x_0_F (= z_0_7 (or z_1_7 z_1_8 z_1_9 z_1_10 z_1_5 z_1_6))))
(assert
 (let (($x193 (= z_0_7 (and z_1_7 z_1_8 z_1_9 z_1_10 z_1_5 z_1_6))))
 (=> x_0_G $x193)))
(assert
 (=> x_0_! (= z_0_8 (not z_1_8))))
(assert
 (let (($x203 (= z_0_8 z_1_9)))
 (=> x_0_X $x203)))
(assert
 (=> x_0_F (= z_0_8 (or z_1_8 z_1_9 z_1_10 z_1_5 z_1_6 z_1_7))))
(assert
 (let (($x212 (= z_0_8 (and z_1_8 z_1_9 z_1_10 z_1_5 z_1_6 z_1_7))))
 (=> x_0_G $x212)))
(assert
 (=> x_0_! (= z_0_9 (not z_1_9))))
(assert
 (let (($x222 (= z_0_9 z_1_10)))
 (=> x_0_X $x222)))
(assert
 (=> x_0_F (= z_0_9 (or z_1_9 z_1_10 z_1_5 z_1_6 z_1_7 z_1_8))))
(assert
 (let (($x231 (= z_0_9 (and z_1_9 z_1_10 z_1_5 z_1_6 z_1_7 z_1_8))))
 (=> x_0_G $x231)))
(assert
 (=> x_0_! (= z_0_10 (not z_1_10))))
(assert
 (let (($x241 (= z_0_10 z_1_5)))
 (=> x_0_X $x241)))
(assert
 (let (($x245 (= z_0_10 (or z_1_10 z_0_5))))
 (=> x_0_F $x245)))
(assert
 (let (($x249 (= z_0_10 (and z_1_10 z_0_5))))
 (=> x_0_G $x249)))
(assert
 (=> x_0_! (= z_0_11 (not z_1_11))))
(assert
 (let (($x261 (= z_0_11 z_1_12)))
 (=> x_0_X $x261)))
(assert
 (let (($x270 (or z_1_11 z_1_12 z_1_13 z_1_14 z_1_15 z_1_16 z_1_17 z_1_18)))
 (let (($x271 (= z_0_11 $x270)))
 (=> x_0_F $x271))))
(assert
 (let (($x274 (and z_1_11 z_1_12 z_1_13 z_1_14 z_1_15 z_1_16 z_1_17 z_1_18)))
 (let (($x275 (= z_0_11 $x274)))
 (=> x_0_G $x275))))
(assert
 (=> x_0_! (= z_0_12 (not z_1_12))))
(assert
 (let (($x285 (= z_0_12 z_1_13)))
 (=> x_0_X $x285)))
(assert
 (let (($x289 (= z_0_12 (or z_1_12 z_1_13 z_1_14 z_1_15 z_1_16 z_1_17 z_1_18))))
 (=> x_0_F $x289)))
(assert
 (let (($x293 (= z_0_12 (and z_1_12 z_1_13 z_1_14 z_1_15 z_1_16 z_1_17 z_1_18))))
 (=> x_0_G $x293)))
(assert
 (=> x_0_! (= z_0_13 (not z_1_13))))
(assert
 (let (($x303 (= z_0_13 z_1_14)))
 (=> x_0_X $x303)))
(assert
 (let (($x307 (= z_0_13 (or z_1_13 z_1_14 z_1_15 z_1_16 z_1_17 z_1_18))))
 (=> x_0_F $x307)))
(assert
 (let (($x311 (= z_0_13 (and z_1_13 z_1_14 z_1_15 z_1_16 z_1_17 z_1_18))))
 (=> x_0_G $x311)))
(assert
 (=> x_0_! (= z_0_14 (not z_1_14))))
(assert
 (let (($x321 (= z_0_14 z_1_15)))
 (=> x_0_X $x321)))
(assert
 (let (($x324 (or z_1_14 z_1_15 z_1_16 z_1_17 z_1_18)))
 (let (($x325 (= z_0_14 $x324)))
 (=> x_0_F $x325))))
(assert
 (let (($x329 (= z_0_14 (and z_1_14 z_1_15 z_1_16 z_1_17 z_1_18))))
 (=> x_0_G $x329)))
(assert
 (=> x_0_! (= z_0_15 (not z_1_15))))
(assert
 (let (($x339 (= z_0_15 z_1_16)))
 (=> x_0_X $x339)))
(assert
 (=> x_0_F (= z_0_15 (or z_1_15 z_1_16 z_1_17 z_1_18 z_1_14))))
(assert
 (let (($x348 (= z_0_15 (and z_1_15 z_1_16 z_1_17 z_1_18 z_1_14))))
 (=> x_0_G $x348)))
(assert
 (=> x_0_! (= z_0_16 (not z_1_16))))
(assert
 (let (($x358 (= z_0_16 z_1_17)))
 (=> x_0_X $x358)))
(assert
 (=> x_0_F (= z_0_16 (or z_1_16 z_1_17 z_1_18 z_1_14 z_1_15))))
(assert
 (let (($x367 (= z_0_16 (and z_1_16 z_1_17 z_1_18 z_1_14 z_1_15))))
 (=> x_0_G $x367)))
(assert
 (=> x_0_! (= z_0_17 (not z_1_17))))
(assert
 (let (($x377 (= z_0_17 z_1_18)))
 (=> x_0_X $x377)))
(assert
 (=> x_0_F (= z_0_17 (or z_1_17 z_1_18 z_1_14 z_1_15 z_1_16))))
(assert
 (let (($x386 (= z_0_17 (and z_1_17 z_1_18 z_1_14 z_1_15 z_1_16))))
 (=> x_0_G $x386)))
(assert
 (=> x_0_! (= z_0_18 (not z_1_18))))
(assert
 (let (($x396 (= z_0_18 z_1_14)))
 (=> x_0_X $x396)))
(assert
 (let (($x400 (= z_0_18 (or z_1_18 z_0_14))))
 (=> x_0_F $x400)))
(assert
 (let (($x404 (= z_0_18 (and z_1_18 z_0_14))))
 (=> x_0_G $x404)))
(assert
 (=> x_0_! (= z_0_19 (not z_1_19))))
(assert
 (let (($x416 (= z_0_19 z_1_20)))
 (=> x_0_X $x416)))
(assert
 (let (($x428 (or z_1_19 z_1_20 z_1_21 z_1_22 z_1_23 z_1_24 z_1_25 z_1_26 z_1_27 z_1_28 z_1_29)))
 (let (($x429 (= z_0_19 $x428)))
 (=> x_0_F $x429))))
(assert
 (let (($x432 (and z_1_19 z_1_20 z_1_21 z_1_22 z_1_23 z_1_24 z_1_25 z_1_26 z_1_27 z_1_28 z_1_29)))
 (let (($x433 (= z_0_19 $x432)))
 (=> x_0_G $x433))))
(assert
 (=> x_0_! (= z_0_20 (not z_1_20))))
(assert
 (let (($x443 (= z_0_20 z_1_21)))
 (=> x_0_X $x443)))
(assert
 (let (($x446 (or z_1_20 z_1_21 z_1_22 z_1_23 z_1_24 z_1_25 z_1_26 z_1_27 z_1_28 z_1_29)))
 (let (($x447 (= z_0_20 $x446)))
 (=> x_0_F $x447))))
(assert
 (let (($x450 (and z_1_20 z_1_21 z_1_22 z_1_23 z_1_24 z_1_25 z_1_26 z_1_27 z_1_28 z_1_29)))
 (let (($x451 (= z_0_20 $x450)))
 (=> x_0_G $x451))))
(assert
 (=> x_0_! (= z_0_21 (not z_1_21))))
(assert
 (let (($x461 (= z_0_21 z_1_22)))
 (=> x_0_X $x461)))
(assert
 (let (($x464 (or z_1_21 z_1_22 z_1_23 z_1_24 z_1_25 z_1_26 z_1_27 z_1_28 z_1_29)))
 (let (($x465 (= z_0_21 $x464)))
 (=> x_0_F $x465))))
(assert
 (let (($x468 (and z_1_21 z_1_22 z_1_23 z_1_24 z_1_25 z_1_26 z_1_27 z_1_28 z_1_29)))
 (let (($x469 (= z_0_21 $x468)))
 (=> x_0_G $x469))))
(assert
 (=> x_0_! (= z_0_22 (not z_1_22))))
(assert
 (let (($x479 (= z_0_22 z_1_23)))
 (=> x_0_X $x479)))
(assert
 (let (($x482 (or z_1_22 z_1_23 z_1_24 z_1_25 z_1_26 z_1_27 z_1_28 z_1_29)))
 (let (($x483 (= z_0_22 $x482)))
 (=> x_0_F $x483))))
(assert
 (let (($x486 (and z_1_22 z_1_23 z_1_24 z_1_25 z_1_26 z_1_27 z_1_28 z_1_29)))
 (let (($x487 (= z_0_22 $x486)))
 (=> x_0_G $x487))))
(assert
 (=> x_0_! (= z_0_23 (not z_1_23))))
(assert
 (let (($x497 (= z_0_23 z_1_24)))
 (=> x_0_X $x497)))
(assert
 (let (($x501 (= z_0_23 (or z_1_23 z_1_24 z_1_25 z_1_26 z_1_27 z_1_28 z_1_29))))
 (=> x_0_F $x501)))
(assert
 (let (($x505 (= z_0_23 (and z_1_23 z_1_24 z_1_25 z_1_26 z_1_27 z_1_28 z_1_29))))
 (=> x_0_G $x505)))
(assert
 (=> x_0_! (= z_0_24 (not z_1_24))))
(assert
 (let (($x515 (= z_0_24 z_1_25)))
 (=> x_0_X $x515)))
(assert
 (let (($x518 (or z_1_24 z_1_25 z_1_26 z_1_27 z_1_28 z_1_29)))
 (let (($x519 (= z_0_24 $x518)))
 (=> x_0_F $x519))))
(assert
 (let (($x523 (= z_0_24 (and z_1_24 z_1_25 z_1_26 z_1_27 z_1_28 z_1_29))))
 (=> x_0_G $x523)))
(assert
 (=> x_0_! (= z_0_25 (not z_1_25))))
(assert
 (let (($x533 (= z_0_25 z_1_26)))
 (=> x_0_X $x533)))
(assert
 (=> x_0_F (= z_0_25 (or z_1_25 z_1_26 z_1_27 z_1_28 z_1_29 z_1_24))))
(assert
 (let (($x542 (= z_0_25 (and z_1_25 z_1_26 z_1_27 z_1_28 z_1_29 z_1_24))))
 (=> x_0_G $x542)))
(assert
 (=> x_0_! (= z_0_26 (not z_1_26))))
(assert
 (let (($x552 (= z_0_26 z_1_27)))
 (=> x_0_X $x552)))
(assert
 (=> x_0_F (= z_0_26 (or z_1_26 z_1_27 z_1_28 z_1_29 z_1_24 z_1_25))))
(assert
 (let (($x561 (= z_0_26 (and z_1_26 z_1_27 z_1_28 z_1_29 z_1_24 z_1_25))))
 (=> x_0_G $x561)))
(assert
 (=> x_0_! (= z_0_27 (not z_1_27))))
(assert
 (let (($x571 (= z_0_27 z_1_28)))
 (=> x_0_X $x571)))
(assert
 (=> x_0_F (= z_0_27 (or z_1_27 z_1_28 z_1_29 z_1_24 z_1_25 z_1_26))))
(assert
 (let (($x580 (= z_0_27 (and z_1_27 z_1_28 z_1_29 z_1_24 z_1_25 z_1_26))))
 (=> x_0_G $x580)))
(assert
 (=> x_0_! (= z_0_28 (not z_1_28))))
(assert
 (let (($x590 (= z_0_28 z_1_29)))
 (=> x_0_X $x590)))
(assert
 (=> x_0_F (= z_0_28 (or z_1_28 z_1_29 z_1_24 z_1_25 z_1_26 z_1_27))))
(assert
 (let (($x599 (= z_0_28 (and z_1_28 z_1_29 z_1_24 z_1_25 z_1_26 z_1_27))))
 (=> x_0_G $x599)))
(assert
 (=> x_0_! (= z_0_29 (not z_1_29))))
(assert
 (let (($x609 (= z_0_29 z_1_24)))
 (=> x_0_X $x609)))
(assert
 (let (($x613 (= z_0_29 (or z_1_29 z_0_24))))
 (=> x_0_F $x613)))
(assert
 (let (($x617 (= z_0_29 (and z_1_29 z_0_24))))
 (=> x_0_G $x617)))
(assert
 (=> x_0_! (= z_0_30 (not z_1_30))))
(assert
 (let (($x629 (= z_0_30 z_1_31)))
 (=> x_0_X $x629)))
(assert
 (let (($x634 (or z_1_30 z_1_31 z_1_32 z_1_33 z_1_23 z_1_24 z_1_25 z_1_26 z_1_27 z_1_28 z_1_29)))
 (=> x_0_F (= z_0_30 $x634))))
(assert
 (let (($x640 (and z_1_30 z_1_31 z_1_32 z_1_33 z_1_23 z_1_24 z_1_25 z_1_26 z_1_27 z_1_28 z_1_29)))
 (let (($x641 (= z_0_30 $x640)))
 (=> x_0_G $x641))))
(assert
 (=> x_0_! (= z_0_31 (not z_1_31))))
(assert
 (let (($x651 (= z_0_31 z_1_32)))
 (=> x_0_X $x651)))
(assert
 (let (($x654 (or z_1_31 z_1_32 z_1_33 z_1_23 z_1_24 z_1_25 z_1_26 z_1_27 z_1_28 z_1_29)))
 (=> x_0_F (= z_0_31 $x654))))
(assert
 (let (($x660 (and z_1_31 z_1_32 z_1_33 z_1_23 z_1_24 z_1_25 z_1_26 z_1_27 z_1_28 z_1_29)))
 (let (($x661 (= z_0_31 $x660)))
 (=> x_0_G $x661))))
(assert
 (=> x_0_! (= z_0_32 (not z_1_32))))
(assert
 (let (($x671 (= z_0_32 z_1_33)))
 (=> x_0_X $x671)))
(assert
 (let (($x674 (or z_1_32 z_1_33 z_1_23 z_1_24 z_1_25 z_1_26 z_1_27 z_1_28 z_1_29)))
 (=> x_0_F (= z_0_32 $x674))))
(assert
 (let (($x680 (and z_1_32 z_1_33 z_1_23 z_1_24 z_1_25 z_1_26 z_1_27 z_1_28 z_1_29)))
 (let (($x681 (= z_0_32 $x680)))
 (=> x_0_G $x681))))
(assert
 (=> x_0_! (= z_0_33 (not z_1_33))))
(assert
 (let (($x691 (= z_0_33 z_1_23)))
 (=> x_0_X $x691)))
(assert
 (let (($x694 (or z_1_33 z_1_23 z_1_24 z_1_25 z_1_26 z_1_27 z_1_28 z_1_29)))
 (=> x_0_F (= z_0_33 $x694))))
(assert
 (let (($x700 (and z_1_33 z_1_23 z_1_24 z_1_25 z_1_26 z_1_27 z_1_28 z_1_29)))
 (let (($x701 (= z_0_33 $x700)))
 (=> x_0_G $x701))))
(assert
 (=> x_0_! (= z_0_34 (not z_1_34))))
(assert
 (let (($x713 (= z_0_34 z_1_35)))
 (=> x_0_X $x713)))
(assert
 (let (($x718 (or z_1_34 z_1_35 z_1_36 z_1_37 z_1_18 z_1_14 z_1_15 z_1_16 z_1_17)))
 (=> x_0_F (= z_0_34 $x718))))
(assert
 (let (($x724 (and z_1_34 z_1_35 z_1_36 z_1_37 z_1_18 z_1_14 z_1_15 z_1_16 z_1_17)))
 (let (($x725 (= z_0_34 $x724)))
 (=> x_0_G $x725))))
(assert
 (=> x_0_! (= z_0_35 (not z_1_35))))
(assert
 (let (($x735 (= z_0_35 z_1_36)))
 (=> x_0_X $x735)))
(assert
 (let (($x738 (or z_1_35 z_1_36 z_1_37 z_1_18 z_1_14 z_1_15 z_1_16 z_1_17)))
 (=> x_0_F (= z_0_35 $x738))))
(assert
 (let (($x744 (and z_1_35 z_1_36 z_1_37 z_1_18 z_1_14 z_1_15 z_1_16 z_1_17)))
 (let (($x745 (= z_0_35 $x744)))
 (=> x_0_G $x745))))
(assert
 (=> x_0_! (= z_0_36 (not z_1_36))))
(assert
 (let (($x755 (= z_0_36 z_1_37)))
 (=> x_0_X $x755)))
(assert
 (let (($x759 (= z_0_36 (or z_1_36 z_1_37 z_1_18 z_1_14 z_1_15 z_1_16 z_1_17))))
 (=> x_0_F $x759)))
(assert
 (let (($x765 (= z_0_36 (and z_1_36 z_1_37 z_1_18 z_1_14 z_1_15 z_1_16 z_1_17))))
 (=> x_0_G $x765)))
(assert
 (=> x_0_! (= z_0_37 (not z_1_37))))
(assert
 (let (($x775 (= z_0_37 z_1_18)))
 (=> x_0_X $x775)))
(assert
 (=> x_0_F (= z_0_37 (or z_1_37 z_1_18 z_1_14 z_1_15 z_1_16 z_1_17))))
(assert
 (let (($x785 (= z_0_37 (and z_1_37 z_1_18 z_1_14 z_1_15 z_1_16 z_1_17))))
 (=> x_0_G $x785)))
(assert
 (=> x_0_! (= z_0_38 (not z_1_38))))
(assert
 (let (($x797 (= z_0_38 z_1_39)))
 (=> x_0_X $x797)))
(assert
 (let (($x803 (= z_0_38 (or z_1_38 z_1_39 z_1_40 z_1_41))))
 (=> x_0_F $x803)))
(assert
 (let (($x807 (= z_0_38 (and z_1_38 z_1_39 z_1_40 z_1_41))))
 (=> x_0_G $x807)))
(assert
 (=> x_0_! (= z_0_39 (not z_1_39))))
(assert
 (let (($x817 (= z_0_39 z_1_40)))
 (=> x_0_X $x817)))
(assert
 (let (($x821 (= z_0_39 (or z_1_39 z_1_40 z_1_41))))
 (=> x_0_F $x821)))
(assert
 (let (($x825 (= z_0_39 (and z_1_39 z_1_40 z_1_41))))
 (=> x_0_G $x825)))
(assert
 (=> x_0_! (= z_0_40 (not z_1_40))))
(assert
 (let (($x835 (= z_0_40 z_1_41)))
 (=> x_0_X $x835)))
(assert
 (let (($x839 (= z_0_40 (or z_1_40 z_1_41))))
 (=> x_0_F $x839)))
(assert
 (let (($x843 (= z_0_40 (and z_1_40 z_1_41))))
 (=> x_0_G $x843)))
(assert
 (=> x_0_! (= z_0_41 (not z_1_41))))
(assert
 (let (($x853 (= z_0_41 z_1_41)))
 (=> x_0_X $x853)))
(assert
 (let (($x857 (= z_0_41 (or z_1_41 z_0_41))))
 (=> x_0_F $x857)))
(assert
 (let (($x861 (= z_0_41 (and z_1_41 z_0_41))))
 (=> x_0_G $x861)))
(assert
 (=> x_0_! (= z_0_42 (not z_1_42))))
(assert
 (let (($x873 (= z_0_42 z_1_43)))
 (=> x_0_X $x873)))
(assert
 (let (($x878 (or z_1_42 z_1_43 z_1_44 z_1_45 z_1_17 z_1_18 z_1_14 z_1_15 z_1_16)))
 (=> x_0_F (= z_0_42 $x878))))
(assert
 (let (($x884 (and z_1_42 z_1_43 z_1_44 z_1_45 z_1_17 z_1_18 z_1_14 z_1_15 z_1_16)))
 (let (($x885 (= z_0_42 $x884)))
 (=> x_0_G $x885))))
(assert
 (=> x_0_! (= z_0_43 (not z_1_43))))
(assert
 (let (($x895 (= z_0_43 z_1_44)))
 (=> x_0_X $x895)))
(assert
 (let (($x898 (or z_1_43 z_1_44 z_1_45 z_1_17 z_1_18 z_1_14 z_1_15 z_1_16)))
 (=> x_0_F (= z_0_43 $x898))))
(assert
 (let (($x904 (and z_1_43 z_1_44 z_1_45 z_1_17 z_1_18 z_1_14 z_1_15 z_1_16)))
 (let (($x905 (= z_0_43 $x904)))
 (=> x_0_G $x905))))
(assert
 (=> x_0_! (= z_0_44 (not z_1_44))))
(assert
 (let (($x915 (= z_0_44 z_1_45)))
 (=> x_0_X $x915)))
(assert
 (let (($x919 (= z_0_44 (or z_1_44 z_1_45 z_1_17 z_1_18 z_1_14 z_1_15 z_1_16))))
 (=> x_0_F $x919)))
(assert
 (let (($x925 (= z_0_44 (and z_1_44 z_1_45 z_1_17 z_1_18 z_1_14 z_1_15 z_1_16))))
 (=> x_0_G $x925)))
(assert
 (=> x_0_! (= z_0_45 (not z_1_45))))
(assert
 (let (($x935 (= z_0_45 z_1_17)))
 (=> x_0_X $x935)))
(assert
 (=> x_0_F (= z_0_45 (or z_1_45 z_1_17 z_1_18 z_1_14 z_1_15 z_1_16))))
(assert
 (let (($x945 (= z_0_45 (and z_1_45 z_1_17 z_1_18 z_1_14 z_1_15 z_1_16))))
 (=> x_0_G $x945)))
(assert
 (=> x_0_! (= z_0_46 (not z_1_46))))
(assert
 (let (($x957 (= z_0_46 z_1_47)))
 (=> x_0_X $x957)))
(assert
 (let (($x968 (or z_1_46 z_1_47 z_1_48 z_1_49 z_1_50 z_1_51 z_1_52 z_1_53 z_1_54 z_1_55)))
 (let (($x969 (= z_0_46 $x968)))
 (=> x_0_F $x969))))
(assert
 (let (($x972 (and z_1_46 z_1_47 z_1_48 z_1_49 z_1_50 z_1_51 z_1_52 z_1_53 z_1_54 z_1_55)))
 (let (($x973 (= z_0_46 $x972)))
 (=> x_0_G $x973))))
(assert
 (=> x_0_! (= z_0_47 (not z_1_47))))
(assert
 (let (($x983 (= z_0_47 z_1_48)))
 (=> x_0_X $x983)))
(assert
 (let (($x986 (or z_1_47 z_1_48 z_1_49 z_1_50 z_1_51 z_1_52 z_1_53 z_1_54 z_1_55)))
 (let (($x987 (= z_0_47 $x986)))
 (=> x_0_F $x987))))
(assert
 (let (($x990 (and z_1_47 z_1_48 z_1_49 z_1_50 z_1_51 z_1_52 z_1_53 z_1_54 z_1_55)))
 (let (($x991 (= z_0_47 $x990)))
 (=> x_0_G $x991))))
(assert
 (=> x_0_! (= z_0_48 (not z_1_48))))
(assert
 (let (($x1001 (= z_0_48 z_1_49)))
 (=> x_0_X $x1001)))
(assert
 (let (($x1004 (or z_1_48 z_1_49 z_1_50 z_1_51 z_1_52 z_1_53 z_1_54 z_1_55)))
 (let (($x1005 (= z_0_48 $x1004)))
 (=> x_0_F $x1005))))
(assert
 (let (($x1008 (and z_1_48 z_1_49 z_1_50 z_1_51 z_1_52 z_1_53 z_1_54 z_1_55)))
 (let (($x1009 (= z_0_48 $x1008)))
 (=> x_0_G $x1009))))
(assert
 (=> x_0_! (= z_0_49 (not z_1_49))))
(assert
 (let (($x1019 (= z_0_49 z_1_50)))
 (=> x_0_X $x1019)))
(assert
 (let (($x1023 (= z_0_49 (or z_1_49 z_1_50 z_1_51 z_1_52 z_1_53 z_1_54 z_1_55))))
 (=> x_0_F $x1023)))
(assert
 (let (($x1027 (= z_0_49 (and z_1_49 z_1_50 z_1_51 z_1_52 z_1_53 z_1_54 z_1_55))))
 (=> x_0_G $x1027)))
(assert
 (=> x_0_! (= z_0_50 (not z_1_50))))
(assert
 (let (($x1037 (= z_0_50 z_1_51)))
 (=> x_0_X $x1037)))
(assert
 (let (($x1041 (= z_0_50 (or z_1_50 z_1_51 z_1_52 z_1_53 z_1_54 z_1_55))))
 (=> x_0_F $x1041)))
(assert
 (let (($x1045 (= z_0_50 (and z_1_50 z_1_51 z_1_52 z_1_53 z_1_54 z_1_55))))
 (=> x_0_G $x1045)))
(assert
 (=> x_0_! (= z_0_51 (not z_1_51))))
(assert
 (let (($x1055 (= z_0_51 z_1_52)))
 (=> x_0_X $x1055)))
(assert
 (let (($x1059 (= z_0_51 (or z_1_51 z_1_52 z_1_53 z_1_54 z_1_55))))
 (=> x_0_F $x1059)))
(assert
 (let (($x1063 (= z_0_51 (and z_1_51 z_1_52 z_1_53 z_1_54 z_1_55))))
 (=> x_0_G $x1063)))
(assert
 (=> x_0_! (= z_0_52 (not z_1_52))))
(assert
 (let (($x1073 (= z_0_52 z_1_53)))
 (=> x_0_X $x1073)))
(assert
 (let (($x1076 (or z_1_52 z_1_53 z_1_54 z_1_55)))
 (let (($x1077 (= z_0_52 $x1076)))
 (=> x_0_F $x1077))))
(assert
 (let (($x1081 (= z_0_52 (and z_1_52 z_1_53 z_1_54 z_1_55))))
 (=> x_0_G $x1081)))
(assert
 (=> x_0_! (= z_0_53 (not z_1_53))))
(assert
 (let (($x1091 (= z_0_53 z_1_54)))
 (=> x_0_X $x1091)))
(assert
 (=> x_0_F (= z_0_53 (or z_1_53 z_1_54 z_1_55 z_1_52))))
(assert
 (let (($x1100 (= z_0_53 (and z_1_53 z_1_54 z_1_55 z_1_52))))
 (=> x_0_G $x1100)))
(assert
 (=> x_0_! (= z_0_54 (not z_1_54))))
(assert
 (let (($x1110 (= z_0_54 z_1_55)))
 (=> x_0_X $x1110)))
(assert
 (=> x_0_F (= z_0_54 (or z_1_54 z_1_55 z_1_52 z_1_53))))
(assert
 (let (($x1119 (= z_0_54 (and z_1_54 z_1_55 z_1_52 z_1_53))))
 (=> x_0_G $x1119)))
(assert
 (=> x_0_! (= z_0_55 (not z_1_55))))
(assert
 (let (($x1129 (= z_0_55 z_1_52)))
 (=> x_0_X $x1129)))
(assert
 (let (($x1133 (= z_0_55 (or z_1_55 z_0_52))))
 (=> x_0_F $x1133)))
(assert
 (let (($x1137 (= z_0_55 (and z_1_55 z_0_52))))
 (=> x_0_G $x1137)))
(assert
 (=> x_0_! (= z_0_56 (not z_1_56))))
(assert
 (let (($x1149 (= z_0_56 z_1_57)))
 (=> x_0_X $x1149)))
(assert
 (let (($x1161 (or z_1_56 z_1_57 z_1_58 z_1_59 z_1_60 z_1_61 z_1_62 z_1_63 z_1_64 z_1_65 z_1_66)))
 (let (($x1162 (= z_0_56 $x1161)))
 (=> x_0_F $x1162))))
(assert
 (let (($x1165 (and z_1_56 z_1_57 z_1_58 z_1_59 z_1_60 z_1_61 z_1_62 z_1_63 z_1_64 z_1_65 z_1_66)))
 (let (($x1166 (= z_0_56 $x1165)))
 (=> x_0_G $x1166))))
(assert
 (=> x_0_! (= z_0_57 (not z_1_57))))
(assert
 (let (($x1176 (= z_0_57 z_1_58)))
 (=> x_0_X $x1176)))
(assert
 (let (($x1179 (or z_1_57 z_1_58 z_1_59 z_1_60 z_1_61 z_1_62 z_1_63 z_1_64 z_1_65 z_1_66)))
 (let (($x1180 (= z_0_57 $x1179)))
 (=> x_0_F $x1180))))
(assert
 (let (($x1183 (and z_1_57 z_1_58 z_1_59 z_1_60 z_1_61 z_1_62 z_1_63 z_1_64 z_1_65 z_1_66)))
 (let (($x1184 (= z_0_57 $x1183)))
 (=> x_0_G $x1184))))
(assert
 (=> x_0_! (= z_0_58 (not z_1_58))))
(assert
 (let (($x1194 (= z_0_58 z_1_59)))
 (=> x_0_X $x1194)))
(assert
 (let (($x1197 (or z_1_58 z_1_59 z_1_60 z_1_61 z_1_62 z_1_63 z_1_64 z_1_65 z_1_66)))
 (let (($x1198 (= z_0_58 $x1197)))
 (=> x_0_F $x1198))))
(assert
 (let (($x1201 (and z_1_58 z_1_59 z_1_60 z_1_61 z_1_62 z_1_63 z_1_64 z_1_65 z_1_66)))
 (let (($x1202 (= z_0_58 $x1201)))
 (=> x_0_G $x1202))))
(assert
 (=> x_0_! (= z_0_59 (not z_1_59))))
(assert
 (let (($x1212 (= z_0_59 z_1_60)))
 (=> x_0_X $x1212)))
(assert
 (let (($x1215 (or z_1_59 z_1_60 z_1_61 z_1_62 z_1_63 z_1_64 z_1_65 z_1_66)))
 (let (($x1216 (= z_0_59 $x1215)))
 (=> x_0_F $x1216))))
(assert
 (let (($x1219 (and z_1_59 z_1_60 z_1_61 z_1_62 z_1_63 z_1_64 z_1_65 z_1_66)))
 (let (($x1220 (= z_0_59 $x1219)))
 (=> x_0_G $x1220))))
(assert
 (=> x_0_! (= z_0_60 (not z_1_60))))
(assert
 (let (($x1230 (= z_0_60 z_1_61)))
 (=> x_0_X $x1230)))
(assert
 (let (($x1234 (= z_0_60 (or z_1_60 z_1_61 z_1_62 z_1_63 z_1_64 z_1_65 z_1_66))))
 (=> x_0_F $x1234)))
(assert
 (let (($x1238 (= z_0_60 (and z_1_60 z_1_61 z_1_62 z_1_63 z_1_64 z_1_65 z_1_66))))
 (=> x_0_G $x1238)))
(assert
 (=> x_0_! (= z_0_61 (not z_1_61))))
(assert
 (let (($x1248 (= z_0_61 z_1_62)))
 (=> x_0_X $x1248)))
(assert
 (let (($x1251 (or z_1_61 z_1_62 z_1_63 z_1_64 z_1_65 z_1_66)))
 (let (($x1252 (= z_0_61 $x1251)))
 (=> x_0_F $x1252))))
(assert
 (let (($x1256 (= z_0_61 (and z_1_61 z_1_62 z_1_63 z_1_64 z_1_65 z_1_66))))
 (=> x_0_G $x1256)))
(assert
 (=> x_0_! (= z_0_62 (not z_1_62))))
(assert
 (let (($x1266 (= z_0_62 z_1_63)))
 (=> x_0_X $x1266)))
(assert
 (=> x_0_F (= z_0_62 (or z_1_62 z_1_63 z_1_64 z_1_65 z_1_66 z_1_61))))
(assert
 (let (($x1275 (= z_0_62 (and z_1_62 z_1_63 z_1_64 z_1_65 z_1_66 z_1_61))))
 (=> x_0_G $x1275)))
(assert
 (=> x_0_! (= z_0_63 (not z_1_63))))
(assert
 (let (($x1285 (= z_0_63 z_1_64)))
 (=> x_0_X $x1285)))
(assert
 (=> x_0_F (= z_0_63 (or z_1_63 z_1_64 z_1_65 z_1_66 z_1_61 z_1_62))))
(assert
 (let (($x1294 (= z_0_63 (and z_1_63 z_1_64 z_1_65 z_1_66 z_1_61 z_1_62))))
 (=> x_0_G $x1294)))
(assert
 (=> x_0_! (= z_0_64 (not z_1_64))))
(assert
 (let (($x1304 (= z_0_64 z_1_65)))
 (=> x_0_X $x1304)))
(assert
 (=> x_0_F (= z_0_64 (or z_1_64 z_1_65 z_1_66 z_1_61 z_1_62 z_1_63))))
(assert
 (let (($x1313 (= z_0_64 (and z_1_64 z_1_65 z_1_66 z_1_61 z_1_62 z_1_63))))
 (=> x_0_G $x1313)))
(assert
 (=> x_0_! (= z_0_65 (not z_1_65))))
(assert
 (let (($x1323 (= z_0_65 z_1_66)))
 (=> x_0_X $x1323)))
(assert
 (=> x_0_F (= z_0_65 (or z_1_65 z_1_66 z_1_61 z_1_62 z_1_63 z_1_64))))
(assert
 (let (($x1332 (= z_0_65 (and z_1_65 z_1_66 z_1_61 z_1_62 z_1_63 z_1_64))))
 (=> x_0_G $x1332)))
(assert
 (=> x_0_! (= z_0_66 (not z_1_66))))
(assert
 (let (($x1342 (= z_0_66 z_1_61)))
 (=> x_0_X $x1342)))
(assert
 (let (($x1346 (= z_0_66 (or z_1_66 z_0_61))))
 (=> x_0_F $x1346)))
(assert
 (let (($x1350 (= z_0_66 (and z_1_66 z_0_61))))
 (=> x_0_G $x1350)))
(assert
 (=> x_0_! (= z_0_67 (not z_1_67))))
(assert
 (let (($x1362 (= z_0_67 z_1_68)))
 (=> x_0_X $x1362)))
(assert
 (let (($x1367 (or z_1_67 z_1_68 z_1_69 z_1_70 z_1_54 z_1_55 z_1_52 z_1_53)))
 (=> x_0_F (= z_0_67 $x1367))))
(assert
 (let (($x1373 (and z_1_67 z_1_68 z_1_69 z_1_70 z_1_54 z_1_55 z_1_52 z_1_53)))
 (let (($x1374 (= z_0_67 $x1373)))
 (=> x_0_G $x1374))))
(assert
 (=> x_0_! (= z_0_68 (not z_1_68))))
(assert
 (let (($x1384 (= z_0_68 z_1_69)))
 (=> x_0_X $x1384)))
(assert
 (let (($x1388 (= z_0_68 (or z_1_68 z_1_69 z_1_70 z_1_54 z_1_55 z_1_52 z_1_53))))
 (=> x_0_F $x1388)))
(assert
 (let (($x1394 (= z_0_68 (and z_1_68 z_1_69 z_1_70 z_1_54 z_1_55 z_1_52 z_1_53))))
 (=> x_0_G $x1394)))
(assert
 (=> x_0_! (= z_0_69 (not z_1_69))))
(assert
 (let (($x1404 (= z_0_69 z_1_70)))
 (=> x_0_X $x1404)))
(assert
 (=> x_0_F (= z_0_69 (or z_1_69 z_1_70 z_1_54 z_1_55 z_1_52 z_1_53))))
(assert
 (let (($x1414 (= z_0_69 (and z_1_69 z_1_70 z_1_54 z_1_55 z_1_52 z_1_53))))
 (=> x_0_G $x1414)))
(assert
 (=> x_0_! (= z_0_70 (not z_1_70))))
(assert
 (let (($x1424 (= z_0_70 z_1_54)))
 (=> x_0_X $x1424)))
(assert
 (=> x_0_F (= z_0_70 (or z_1_70 z_1_54 z_1_55 z_1_52 z_1_53))))
(assert
 (let (($x1434 (= z_0_70 (and z_1_70 z_1_54 z_1_55 z_1_52 z_1_53))))
 (=> x_0_G $x1434)))
(assert
 z_1_0)
(assert
 (not z_1_1))
(assert
 (not z_1_2))
(assert
 (not z_1_3))
(assert
 z_1_4)
(assert
 z_1_5)
(assert
 z_1_6)
(assert
 z_1_7)
(assert
 z_1_8)
(assert
 (not z_1_9))
(assert
 (not z_1_10))
(assert
 (not z_1_11))
(assert
 (not z_1_12))
(assert
 z_1_13)
(assert
 (not z_1_14))
(assert
 z_1_15)
(assert
 z_1_16)
(assert
 (not z_1_17))
(assert
 (not z_1_18))
(assert
 z_1_19)
(assert
 (not z_1_20))
(assert
 z_1_21)
(assert
 z_1_22)
(assert
 z_1_23)
(assert
 z_1_24)
(assert
 (not z_1_25))
(assert
 (not z_1_26))
(assert
 (not z_1_27))
(assert
 z_1_28)
(assert
 (not z_1_29))
(assert
 z_1_30)
(assert
 z_1_31)
(assert
 z_1_32)
(assert
 (not z_1_33))
(assert
 z_1_34)
(assert
 z_1_35)
(assert
 (not z_1_36))
(assert
 z_1_37)
(assert
 (not z_1_38))
(assert
 z_1_39)
(assert
 z_1_40)
(assert
 (not z_1_41))
(assert
 z_1_42)
(assert
 (not z_1_43))
(assert
 z_1_44)
(assert
 (not z_1_45))
(assert
 (not z_1_46))
(assert
 (not z_1_47))
(assert
 (not z_1_48))
(assert
 z_1_49)
(assert
 (not z_1_50))
(assert
 (not z_1_51))
(assert
 z_1_52)
(assert
 (not z_1_53))
(assert
 z_1_54)
(assert
 z_1_55)
(assert
 z_1_56)
(assert
 z_1_57)
(assert
 (not z_1_58))
(assert
 (not z_1_59))
(assert
 (not z_1_60))
(assert
 z_1_61)
(assert
 (not z_1_62))
(assert
 (not z_1_63))
(assert
 (not z_1_64))
(assert
 z_1_65)
(assert
 z_1_66)
(assert
 z_1_67)
(assert
 (not z_1_68))
(assert
 (not z_1_69))
(assert
 z_1_70)
(check-sat)

